lattice_vector	4.938	0.0 0.0
lattice_vector 0.0 50 0.0
lattice_vector 0.0 0.0 50.0
atom	-0.58442	 -0.32662  0.0    C
atom	0.58442	   0.32662  0.0    C
atom	0.58442	   1.40362  0.0    H
atom	-0.58442	 -1.40362  0.0    H
atom	1.8845799999999997	 -0.32662  0.0    C
atom	3.05342	   0.32662  0.0    C
atom	3.05342	   1.40362  0.0    H
atom	1.8845799999999997	 -1.40362  0.0    H
